100
32
22
2
16
4
26
13
26
19
14
9
11
9
9
3
17
1
20
2
16
9
20
4
4
4
4
3
29
1
1
18
3
18
1
2
2
1
4
1
2
6
2
2
4
1
1
5
3
1
1
1
19
8
1
18
4
3
1
21
1
8
1
4
3
1
2
2
3
18
2
6
1
3
1
2
5
2
21
4
2
1
18
1
3
1
1
2
18
2
1
1
2
1
2
2
2
3
1
2
1
1